p cnf 838 2393
e 1 2 3 4 5 6 7 8 9 10 11 12 13 14 15 16 17 18 19 20 21 22 23 24 25 26 27 28 29 30 31 32 33 34 35 36 37 38 39 40 41 0
a 454 455 456 457 458 459 460 461 462 463 464 465 0
e 42 43 44 45 46 47 48 49 50 51 52 53 54 55 56 57 58 59 60 61 62 63 64 65 66 67 68 69 70 71 72 73 74 75 76 77 78 79 80 81 82 83 84 85 86 87 88 89 90 91 92 93 94 95 96 97 98 99 100 101 102 103 104 105 106 107 108 109 110 111 112 113 114 115 116 117 118 119 120 121 122 123 124 125 126 127 128 129 130 131 132 133 134 135 136 137 138 139 140 141 142 143 144 145 146 147 148 149 150 151 152 153 154 155 156 157 158 159 160 161 162 163 164 165 166 167 168 169 170 171 172 173 174 175 176 177 178 179 180 181 182 183 184 185 186 187 188 189 190 191 192 193 194 195 196 197 198 199 200 201 202 203 204 205 206 207 208 209 210 211 212 213 214 215 216 217 218 219 220 221 222 223 224 225 226 227 228 229 230 231 232 233 234 235 236 237 238 239 240 241 242 243 244 245 246 247 248 249 250 251 252 253 254 255 256 257 258 259 260 261 262 263 264 265 266 267 268 269 270 271 272 273 274 275 276 277 278 279 280 281 282 283 284 285 286 287 288 289 290 291 292 293 294 295 296 297 298 299 300 301 302 303 304 305 306 307 308 309 310 311 312 313 314 315 316 317 318 319 320 321 322 323 324 325 326 327 328 329 330 331 332 333 334 335 336 337 338 339 340 341 342 343 344 345 346 347 348 349 350 351 352 353 354 355 356 357 358 359 360 361 362 363 364 365 366 367 368 369 370 371 372 373 374 375 376 377 378 379 380 381 382 383 384 385 386 387 388 389 390 391 392 393 394 395 396 397 398 399 400 401 402 403 404 405 406 407 408 409 410 411 412 413 414 415 416 417 418 419 420 421 422 423 424 425 426 427 428 429 430 431 432 433 434 435 436 437 438 439 440 441 442 443 444 445 446 447 448 449 450 451 452 453 466 467 468 469 470 471 472 473 474 475 476 477 478 479 480 481 482 483 484 485 486 487 488 489 490 491 492 493 494 495 496 497 498 499 500 501 502 503 504 505 506 507 508 509 510 511 512 513 514 515 516 517 518 519 520 521 522 523 524 525 526 527 528 529 530 531 532 533 534 535 536 537 538 539 540 541 542 543 544 545 546 547 548 549 550 551 552 553 554 555 556 557 558 559 560 561 562 563 564 565 566 567 568 569 570 571 572 573 574 575 576 577 578 579 580 581 582 583 584 585 586 587 588 589 590 591 592 593 594 595 596 597 598 599 600 601 602 603 604 605 606 607 608 609 610 611 612 613 614 615 616 617 618 619 620 621 622 623 624 625 626 627 628 629 630 631 632 633 634 635 636 637 638 639 640 641 642 643 644 645 646 647 648 649 650 651 652 653 654 655 656 657 658 659 660 661 662 663 664 665 666 667 668 669 670 671 672 673 674 675 676 677 678 679 680 681 682 683 684 685 686 687 688 689 690 691 692 693 694 695 696 697 698 699 700 701 702 703 704 705 706 707 708 709 710 711 712 713 714 715 716 717 718 719 720 721 722 723 724 725 726 727 728 729 730 731 732 733 734 735 736 737 738 739 740 741 742 743 744 745 746 747 748 749 750 751 752 753 754 755 756 757 758 759 760 761 762 763 764 765 766 767 768 769 770 771 772 773 774 775 776 777 778 779 780 781 782 783 784 785 786 787 788 789 790 791 792 793 794 795 796 797 798 799 800 801 802 803 804 805 806 807 808 809 810 811 812 813 814 815 816 817 818 819 820 821 822 823 824 825 826 827 828 829 830 831 832 833 834 835 836 837 838 0
-1 -42 0
5 -42 0
-5 1 42 0
1 -43 0
-5 -43 0
5 -1 43 0
44 -42 0
44 -43 0
-44 43 42 0
-9 -45 0
13 -45 0
-13 9 45 0
9 -46 0
-13 -46 0
13 -9 46 0
47 -45 0
47 -46 0
-47 46 45 0
-48 -44 0
-48 47 0
48 -47 44 0
-49 44 0
-49 -47 0
49 47 -44 0
50 -48 0
50 -49 0
-50 49 48 0
33 -51 0
41 -51 0
-41 -33 51 0
-17 -52 0
18 -52 0
-18 17 52 0
17 -53 0
-18 -53 0
18 -17 53 0
54 -52 0
54 -53 0
-54 53 52 0
-19 -55 0
20 -55 0
-20 19 55 0
19 -56 0
-20 -56 0
20 -19 56 0
57 -55 0
57 -56 0
-57 56 55 0
-58 -54 0
-58 57 0
58 -57 54 0
-59 54 0
-59 -57 0
59 57 -54 0
60 -58 0
60 -59 0
-60 59 58 0
-21 -61 0
22 -61 0
-22 21 61 0
21 -62 0
-22 -62 0
22 -21 62 0
63 -61 0
63 -62 0
-63 62 61 0
-23 -64 0
24 -64 0
-24 23 64 0
23 -65 0
-24 -65 0
24 -23 65 0
66 -64 0
66 -65 0
-66 65 64 0
-67 -63 0
-67 66 0
67 -66 63 0
-68 63 0
-68 -66 0
68 66 -63 0
69 -67 0
69 -68 0
-69 68 67 0
-70 -60 0
-70 69 0
70 -69 60 0
-71 60 0
-71 -69 0
71 69 -60 0
72 -70 0
72 -71 0
-72 71 70 0
-73 -51 0
-73 72 0
73 -72 51 0
-74 51 0
-74 -72 0
74 72 -51 0
75 -73 0
75 -74 0
-75 74 73 0
-76 -50 0
-76 75 0
76 -75 50 0
-77 50 0
-77 -75 0
77 75 -50 0
78 -76 0
78 -77 0
-78 77 76 0
-17 -79 0
21 -79 0
-21 17 79 0
17 -80 0
-21 -80 0
21 -17 80 0
81 -79 0
81 -80 0
-81 80 79 0
-25 -82 0
29 -82 0
-29 25 82 0
25 -83 0
-29 -83 0
29 -25 83 0
84 -82 0
84 -83 0
-84 83 82 0
-85 -81 0
-85 84 0
85 -84 81 0
-86 81 0
-86 -84 0
86 84 -81 0
87 -85 0
87 -86 0
-87 86 85 0
37 -88 0
41 -88 0
-41 -37 88 0
-1 -89 0
2 -89 0
-2 1 89 0
1 -90 0
-2 -90 0
2 -1 90 0
91 -89 0
91 -90 0
-91 90 89 0
-3 -92 0
4 -92 0
-4 3 92 0
3 -93 0
-4 -93 0
4 -3 93 0
94 -92 0
94 -93 0
-94 93 92 0
-95 -91 0
-95 94 0
95 -94 91 0
-96 91 0
-96 -94 0
96 94 -91 0
97 -95 0
97 -96 0
-97 96 95 0
-5 -98 0
6 -98 0
-6 5 98 0
5 -99 0
-6 -99 0
6 -5 99 0
100 -98 0
100 -99 0
-100 99 98 0
-7 -101 0
8 -101 0
-8 7 101 0
7 -102 0
-8 -102 0
8 -7 102 0
103 -101 0
103 -102 0
-103 102 101 0
-104 -100 0
-104 103 0
104 -103 100 0
-105 100 0
-105 -103 0
105 103 -100 0
106 -104 0
106 -105 0
-106 105 104 0
-107 -97 0
-107 106 0
107 -106 97 0
-108 97 0
-108 -106 0
108 106 -97 0
109 -107 0
109 -108 0
-109 108 107 0
-110 -88 0
-110 109 0
110 -109 88 0
-111 88 0
-111 -109 0
111 109 -88 0
112 -110 0
112 -111 0
-112 111 110 0
-113 -87 0
-113 112 0
113 -112 87 0
-114 87 0
-114 -112 0
114 112 -87 0
115 -113 0
115 -114 0
-115 114 113 0
-18 -116 0
22 -116 0
-22 18 116 0
18 -117 0
-22 -117 0
22 -18 117 0
118 -116 0
118 -117 0
-118 117 116 0
-26 -119 0
30 -119 0
-30 26 119 0
26 -120 0
-30 -120 0
30 -26 120 0
121 -119 0
121 -120 0
-121 120 119 0
-122 -118 0
-122 121 0
122 -121 118 0
-123 118 0
-123 -121 0
123 121 -118 0
124 -122 0
124 -123 0
-124 123 122 0
38 -125 0
41 -125 0
-41 -38 125 0
-9 -126 0
10 -126 0
-10 9 126 0
9 -127 0
-10 -127 0
10 -9 127 0
128 -126 0
128 -127 0
-128 127 126 0
-11 -129 0
12 -129 0
-12 11 129 0
11 -130 0
-12 -130 0
12 -11 130 0
131 -129 0
131 -130 0
-131 130 129 0
-132 -128 0
-132 131 0
132 -131 128 0
-133 128 0
-133 -131 0
133 131 -128 0
134 -132 0
134 -133 0
-134 133 132 0
-13 -135 0
14 -135 0
-14 13 135 0
13 -136 0
-14 -136 0
14 -13 136 0
137 -135 0
137 -136 0
-137 136 135 0
-15 -138 0
16 -138 0
-16 15 138 0
15 -139 0
-16 -139 0
16 -15 139 0
140 -138 0
140 -139 0
-140 139 138 0
-141 -137 0
-141 140 0
141 -140 137 0
-142 137 0
-142 -140 0
142 140 -137 0
143 -141 0
143 -142 0
-143 142 141 0
-144 -134 0
-144 143 0
144 -143 134 0
-145 134 0
-145 -143 0
145 143 -134 0
146 -144 0
146 -145 0
-146 145 144 0
-147 -125 0
-147 146 0
147 -146 125 0
-148 125 0
-148 -146 0
148 146 -125 0
149 -147 0
149 -148 0
-149 148 147 0
-150 -124 0
-150 149 0
150 -149 124 0
-151 124 0
-151 -149 0
151 149 -124 0
152 -150 0
152 -151 0
-152 151 150 0
-153 -152 0
153 152 0
-19 -154 0
23 -154 0
-23 19 154 0
19 -155 0
-23 -155 0
23 -19 155 0
156 -154 0
156 -155 0
-156 155 154 0
-27 -157 0
31 -157 0
-31 27 157 0
27 -158 0
-31 -158 0
31 -27 158 0
159 -157 0
159 -158 0
-159 158 157 0
-160 -156 0
-160 159 0
160 -159 156 0
-161 156 0
-161 -159 0
161 159 -156 0
162 -160 0
162 -161 0
-162 161 160 0
39 -163 0
41 -163 0
-41 -39 163 0
-164 -97 0
-164 134 0
164 -134 97 0
-165 97 0
-165 -134 0
165 134 -97 0
166 -164 0
166 -165 0
-166 165 164 0
-167 -163 0
-167 166 0
167 -166 163 0
-168 163 0
-168 -166 0
168 166 -163 0
169 -167 0
169 -168 0
-169 168 167 0
-170 -162 0
-170 169 0
170 -169 162 0
-171 162 0
-171 -169 0
171 169 -162 0
172 -170 0
172 -171 0
-172 171 170 0
-20 -173 0
24 -173 0
-24 20 173 0
20 -174 0
-24 -174 0
24 -20 174 0
175 -173 0
175 -174 0
-175 174 173 0
-28 -176 0
32 -176 0
-32 28 176 0
28 -177 0
-32 -177 0
32 -28 177 0
178 -176 0
178 -177 0
-178 177 176 0
-179 -175 0
-179 178 0
179 -178 175 0
-180 175 0
-180 -178 0
180 178 -175 0
181 -179 0
181 -180 0
-181 180 179 0
40 -182 0
41 -182 0
-41 -40 182 0
-183 -106 0
-183 143 0
183 -143 106 0
-184 106 0
-184 -143 0
184 143 -106 0
185 -183 0
185 -184 0
-185 184 183 0
-186 -182 0
-186 185 0
186 -185 182 0
-187 182 0
-187 -185 0
187 185 -182 0
188 -186 0
188 -187 0
-188 187 186 0
-189 -181 0
-189 188 0
189 -188 181 0
-190 181 0
-190 -188 0
190 188 -181 0
191 -189 0
191 -190 0
-191 190 189 0
-192 -191 0
192 191 0
-193 -78 0
193 78 0
-2 -194 0
6 -194 0
-6 2 194 0
2 -195 0
-6 -195 0
6 -2 195 0
196 -194 0
196 -195 0
-196 195 194 0
-10 -197 0
14 -197 0
-14 10 197 0
10 -198 0
-14 -198 0
14 -10 198 0
199 -197 0
199 -198 0
-199 198 197 0
-200 -196 0
-200 199 0
200 -199 196 0
-201 196 0
-201 -199 0
201 199 -196 0
202 -200 0
202 -201 0
-202 201 200 0
34 -203 0
41 -203 0
-41 -34 203 0
-25 -204 0
26 -204 0
-26 25 204 0
25 -205 0
-26 -205 0
26 -25 205 0
206 -204 0
206 -205 0
-206 205 204 0
-27 -207 0
28 -207 0
-28 27 207 0
27 -208 0
-28 -208 0
28 -27 208 0
209 -207 0
209 -208 0
-209 208 207 0
-210 -206 0
-210 209 0
210 -209 206 0
-211 206 0
-211 -209 0
211 209 -206 0
212 -210 0
212 -211 0
-212 211 210 0
-29 -213 0
30 -213 0
-30 29 213 0
29 -214 0
-30 -214 0
30 -29 214 0
215 -213 0
215 -214 0
-215 214 213 0
-31 -216 0
32 -216 0
-32 31 216 0
31 -217 0
-32 -217 0
32 -31 217 0
218 -216 0
218 -217 0
-218 217 216 0
-219 -215 0
-219 218 0
219 -218 215 0
-220 215 0
-220 -218 0
220 218 -215 0
221 -219 0
221 -220 0
-221 220 219 0
-222 -212 0
-222 221 0
222 -221 212 0
-223 212 0
-223 -221 0
223 221 -212 0
224 -222 0
224 -223 0
-224 223 222 0
-225 -203 0
-225 224 0
225 -224 203 0
-226 203 0
-226 -224 0
226 224 -203 0
227 -225 0
227 -226 0
-227 226 225 0
-228 -202 0
-228 227 0
228 -227 202 0
-229 202 0
-229 -227 0
229 227 -202 0
230 -228 0
230 -229 0
-230 229 228 0
-231 -230 0
231 230 0
-3 -232 0
7 -232 0
-7 3 232 0
3 -233 0
-7 -233 0
7 -3 233 0
234 -232 0
234 -233 0
-234 233 232 0
-11 -235 0
15 -235 0
-15 11 235 0
11 -236 0
-15 -236 0
15 -11 236 0
237 -235 0
237 -236 0
-237 236 235 0
-238 -234 0
-238 237 0
238 -237 234 0
-239 234 0
-239 -237 0
239 237 -234 0
240 -238 0
240 -239 0
-240 239 238 0
35 -241 0
41 -241 0
-41 -35 241 0
-242 -60 0
-242 212 0
242 -212 60 0
-243 60 0
-243 -212 0
243 212 -60 0
244 -242 0
244 -243 0
-244 243 242 0
-245 -241 0
-245 244 0
245 -244 241 0
-246 241 0
-246 -244 0
246 244 -241 0
247 -245 0
247 -246 0
-247 246 245 0
-248 -240 0
-248 247 0
248 -247 240 0
-249 240 0
-249 -247 0
249 247 -240 0
250 -248 0
250 -249 0
-250 249 248 0
-251 -250 0
251 250 0
-4 -252 0
8 -252 0
-8 4 252 0
4 -253 0
-8 -253 0
8 -4 253 0
254 -252 0
254 -253 0
-254 253 252 0
-12 -255 0
16 -255 0
-16 12 255 0
12 -256 0
-16 -256 0
16 -12 256 0
257 -255 0
257 -256 0
-257 256 255 0
-258 -254 0
-258 257 0
258 -257 254 0
-259 254 0
-259 -257 0
259 257 -254 0
260 -258 0
260 -259 0
-260 259 258 0
36 -261 0
41 -261 0
-41 -36 261 0
-262 -69 0
-262 221 0
262 -221 69 0
-263 69 0
-263 -221 0
263 221 -69 0
264 -262 0
264 -263 0
-264 263 262 0
-265 -261 0
-265 264 0
265 -264 261 0
-266 261 0
-266 -264 0
266 264 -261 0
267 -265 0
267 -266 0
-267 266 265 0
-268 -260 0
-268 267 0
268 -267 260 0
-269 260 0
-269 -267 0
269 267 -260 0
270 -268 0
270 -269 0
-270 269 268 0
-271 193 0
-271 231 0
-271 251 0
-271 270 0
271 -270 -251 -231 -193 0
-272 -78 0
272 78 0
-273 -230 0
273 230 0
-274 -270 0
274 270 0
-275 272 0
-275 273 0
-275 250 0
-275 274 0
275 -274 -273 -272 -250 0
-276 -78 0
276 78 0
-277 -250 0
277 250 0
-278 -270 0
278 270 0
-279 276 0
-279 230 0
-279 277 0
-279 278 0
279 -278 -277 -276 -230 0
-280 -230 0
280 230 0
-281 -250 0
281 250 0
-282 -270 0
282 270 0
-283 78 0
-283 280 0
-283 281 0
-283 282 0
283 -282 -281 -280 -78 0
-284 -271 0
-284 -275 0
-284 -279 0
-284 -283 0
284 283 279 275 271 0
-285 -284 0
285 284 0
-286 115 0
-286 153 0
-286 172 0
-286 192 0
-286 285 0
286 -285 -192 -172 -153 -115 0
-287 78 0
-287 286 0
287 -286 -78 0
-1 -288 0
-288 287 0
1 288 -287 0
1 -289 0
-289 -287 0
-1 289 287 0
290 -288 0
290 -289 0
-290 289 288 0
-291 230 0
-291 286 0
291 -286 -230 0
-2 -292 0
-292 291 0
2 292 -291 0
2 -293 0
-293 -291 0
-2 293 291 0
294 -292 0
294 -293 0
-294 293 292 0
-295 250 0
-295 286 0
295 -286 -250 0
-3 -296 0
-296 295 0
3 296 -295 0
3 -297 0
-297 -295 0
-3 297 295 0
298 -296 0
298 -297 0
-298 297 296 0
-299 270 0
-299 286 0
299 -286 -270 0
-4 -300 0
-300 299 0
4 300 -299 0
4 -301 0
-301 -299 0
-4 301 299 0
302 -300 0
302 -301 0
-302 301 300 0
-303 -152 0
303 152 0
-304 -172 0
304 172 0
-305 115 0
-305 303 0
-305 304 0
-305 191 0
-305 285 0
305 -304 -303 -285 -191 -115 0
-306 78 0
-306 305 0
306 -305 -78 0
-5 -307 0
-307 306 0
5 307 -306 0
5 -308 0
-308 -306 0
-5 308 306 0
309 -307 0
309 -308 0
-309 308 307 0
-310 230 0
-310 305 0
310 -305 -230 0
-6 -311 0
-311 310 0
6 311 -310 0
6 -312 0
-312 -310 0
-6 312 310 0
313 -311 0
313 -312 0
-313 312 311 0
-314 250 0
-314 305 0
314 -305 -250 0
-7 -315 0
-315 314 0
7 315 -314 0
7 -316 0
-316 -314 0
-7 316 314 0
317 -315 0
317 -316 0
-317 316 315 0
-318 270 0
-318 305 0
318 -305 -270 0
-8 -319 0
-319 318 0
8 319 -318 0
8 -320 0
-320 -318 0
-8 320 318 0
321 -319 0
321 -320 0
-321 320 319 0
-322 -115 0
322 115 0
-323 -191 0
323 191 0
-324 322 0
-324 152 0
-324 172 0
-324 323 0
-324 285 0
324 -323 -322 -285 -172 -152 0
-325 78 0
-325 324 0
325 -324 -78 0
-9 -326 0
-326 325 0
9 326 -325 0
9 -327 0
-327 -325 0
-9 327 325 0
328 -326 0
328 -327 0
-328 327 326 0
-329 230 0
-329 324 0
329 -324 -230 0
-10 -330 0
-330 329 0
10 330 -329 0
10 -331 0
-331 -329 0
-10 331 329 0
332 -330 0
332 -331 0
-332 331 330 0
-333 250 0
-333 324 0
333 -324 -250 0
-11 -334 0
-334 333 0
11 334 -333 0
11 -335 0
-335 -333 0
-11 335 333 0
336 -334 0
336 -335 0
-336 335 334 0
-337 270 0
-337 324 0
337 -324 -270 0
-12 -338 0
-338 337 0
12 338 -337 0
12 -339 0
-339 -337 0
-12 339 337 0
340 -338 0
340 -339 0
-340 339 338 0
-341 -115 0
341 115 0
-342 -172 0
342 172 0
-343 341 0
-343 152 0
-343 342 0
-343 191 0
-343 285 0
343 -342 -341 -285 -191 -152 0
-344 78 0
-344 343 0
344 -343 -78 0
-13 -345 0
-345 344 0
13 345 -344 0
13 -346 0
-346 -344 0
-13 346 344 0
347 -345 0
347 -346 0
-347 346 345 0
-348 230 0
-348 343 0
348 -343 -230 0
-14 -349 0
-349 348 0
14 349 -348 0
14 -350 0
-350 -348 0
-14 350 348 0
351 -349 0
351 -350 0
-351 350 349 0
-352 250 0
-352 343 0
352 -343 -250 0
-15 -353 0
-353 352 0
15 353 -352 0
15 -354 0
-354 -352 0
-15 354 352 0
355 -353 0
355 -354 0
-355 354 353 0
-356 270 0
-356 343 0
356 -343 -270 0
-16 -357 0
-357 356 0
16 357 -356 0
16 -358 0
-358 -356 0
-16 358 356 0
359 -357 0
359 -358 0
-359 358 357 0
-360 -230 0
360 230 0
-361 -270 0
361 270 0
-362 -115 0
362 115 0
-363 -152 0
363 152 0
-364 -172 0
364 172 0
-365 362 0
-365 363 0
-365 364 0
-365 191 0
365 -364 -363 -362 -191 0
-366 -115 0
366 115 0
-367 -152 0
367 152 0
-368 -191 0
368 191 0
-369 366 0
-369 367 0
-369 172 0
-369 368 0
369 -368 -367 -366 -172 0
-370 -115 0
370 115 0
-371 -172 0
371 172 0
-372 -191 0
372 191 0
-373 370 0
-373 152 0
-373 371 0
-373 372 0
373 -372 -371 -370 -152 0
-374 -152 0
374 152 0
-375 -172 0
375 172 0
-376 -191 0
376 191 0
-377 115 0
-377 374 0
-377 375 0
-377 376 0
377 -376 -375 -374 -115 0
-378 -365 0
-378 -369 0
-378 -373 0
-378 -377 0
378 377 373 369 365 0
-379 -378 0
379 378 0
-380 78 0
-380 360 0
-380 250 0
-380 361 0
-380 379 0
380 -379 -361 -360 -250 -78 0
-381 115 0
-381 380 0
381 -380 -115 0
-17 -382 0
-382 381 0
17 382 -381 0
17 -383 0
-383 -381 0
-17 383 381 0
384 -382 0
384 -383 0
-384 383 382 0
-385 152 0
-385 380 0
385 -380 -152 0
-18 -386 0
-386 385 0
18 386 -385 0
18 -387 0
-387 -385 0
-18 387 385 0
388 -386 0
388 -387 0
-388 387 386 0
-389 172 0
-389 380 0
389 -380 -172 0
-19 -390 0
-390 389 0
19 390 -389 0
19 -391 0
-391 -389 0
-19 391 389 0
392 -390 0
392 -391 0
-392 391 390 0
-393 191 0
-393 380 0
393 -380 -191 0
-20 -394 0
-394 393 0
20 394 -393 0
20 -395 0
-395 -393 0
-20 395 393 0
396 -394 0
396 -395 0
-396 395 394 0
-397 -230 0
397 230 0
-398 -250 0
398 250 0
-399 78 0
-399 397 0
-399 398 0
-399 270 0
-399 379 0
399 -398 -397 -379 -270 -78 0
-400 115 0
-400 399 0
400 -399 -115 0
-21 -401 0
-401 400 0
21 401 -400 0
21 -402 0
-402 -400 0
-21 402 400 0
403 -401 0
403 -402 0
-403 402 401 0
-404 152 0
-404 399 0
404 -399 -152 0
-22 -405 0
-405 404 0
22 405 -404 0
22 -406 0
-406 -404 0
-22 406 404 0
407 -405 0
407 -406 0
-407 406 405 0
-408 172 0
-408 399 0
408 -399 -172 0
-23 -409 0
-409 408 0
23 409 -408 0
23 -410 0
-410 -408 0
-23 410 408 0
411 -409 0
411 -410 0
-411 410 409 0
-412 191 0
-412 399 0
412 -399 -191 0
-24 -413 0
-413 412 0
24 413 -412 0
24 -414 0
-414 -412 0
-24 414 412 0
415 -413 0
415 -414 0
-415 414 413 0
-416 -78 0
416 78 0
-417 -270 0
417 270 0
-418 416 0
-418 230 0
-418 250 0
-418 417 0
-418 379 0
418 -417 -416 -379 -250 -230 0
-419 115 0
-419 418 0
419 -418 -115 0
-25 -420 0
-420 419 0
25 420 -419 0
25 -421 0
-421 -419 0
-25 421 419 0
422 -420 0
422 -421 0
-422 421 420 0
-423 152 0
-423 418 0
423 -418 -152 0
-26 -424 0
-424 423 0
26 424 -423 0
26 -425 0
-425 -423 0
-26 425 423 0
426 -424 0
426 -425 0
-426 425 424 0
-427 172 0
-427 418 0
427 -418 -172 0
-27 -428 0
-428 427 0
27 428 -427 0
27 -429 0
-429 -427 0
-27 429 427 0
430 -428 0
430 -429 0
-430 429 428 0
-431 191 0
-431 418 0
431 -418 -191 0
-28 -432 0
-432 431 0
28 432 -431 0
28 -433 0
-433 -431 0
-28 433 431 0
434 -432 0
434 -433 0
-434 433 432 0
-435 -78 0
435 78 0
-436 -250 0
436 250 0
-437 435 0
-437 230 0
-437 436 0
-437 270 0
-437 379 0
437 -436 -435 -379 -270 -230 0
-438 115 0
-438 437 0
438 -437 -115 0
-29 -439 0
-439 438 0
29 439 -438 0
29 -440 0
-440 -438 0
-29 440 438 0
441 -439 0
441 -440 0
-441 440 439 0
-442 152 0
-442 437 0
442 -437 -152 0
-30 -443 0
-443 442 0
30 443 -442 0
30 -444 0
-444 -442 0
-30 444 442 0
445 -443 0
445 -444 0
-445 444 443 0
-446 172 0
-446 437 0
446 -437 -172 0
-31 -447 0
-447 446 0
31 447 -446 0
31 -448 0
-448 -446 0
-31 448 446 0
449 -447 0
449 -448 0
-449 448 447 0
-450 191 0
-450 437 0
450 -437 -191 0
-32 -451 0
-451 450 0
32 451 -450 0
32 -452 0
-452 -450 0
-32 452 450 0
453 -451 0
453 -452 0
-453 452 451 0
-1 -466 0
5 -466 0
-5 1 466 0
1 -467 0
-5 -467 0
5 -1 467 0
468 -466 0
468 -467 0
-468 467 466 0
-9 -469 0
13 -469 0
-13 9 469 0
9 -470 0
-13 -470 0
13 -9 470 0
471 -469 0
471 -470 0
-471 470 469 0
-472 -468 0
-472 471 0
472 -471 468 0
-473 468 0
-473 -471 0
473 471 -468 0
474 -472 0
474 -473 0
-474 473 472 0
33 -475 0
41 -475 0
-41 -33 475 0
-17 -476 0
18 -476 0
-18 17 476 0
17 -477 0
-18 -477 0
18 -17 477 0
478 -476 0
478 -477 0
-478 477 476 0
-19 -479 0
20 -479 0
-20 19 479 0
19 -480 0
-20 -480 0
20 -19 480 0
481 -479 0
481 -480 0
-481 480 479 0
-482 -478 0
-482 481 0
482 -481 478 0
-483 478 0
-483 -481 0
483 481 -478 0
484 -482 0
484 -483 0
-484 483 482 0
-21 -485 0
22 -485 0
-22 21 485 0
21 -486 0
-22 -486 0
22 -21 486 0
487 -485 0
487 -486 0
-487 486 485 0
-488 -487 0
465 -488 0
-465 488 487 0
-489 487 0
-465 -489 0
465 489 -487 0
490 -488 0
490 -489 0
-490 489 488 0
-491 -484 0
-491 490 0
491 -490 484 0
-492 484 0
-492 -490 0
492 490 -484 0
493 -491 0
493 -492 0
-493 492 491 0
-494 -475 0
-494 493 0
494 -493 475 0
-495 475 0
-495 -493 0
495 493 -475 0
496 -494 0
496 -495 0
-496 495 494 0
-497 -474 0
-497 496 0
497 -496 474 0
-498 474 0
-498 -496 0
498 496 -474 0
499 -497 0
499 -498 0
-499 498 497 0
-17 -500 0
21 -500 0
-21 17 500 0
17 -501 0
-21 -501 0
21 -17 501 0
502 -500 0
502 -501 0
-502 501 500 0
-25 -503 0
29 -503 0
-29 25 503 0
25 -504 0
-29 -504 0
29 -25 504 0
505 -503 0
505 -504 0
-505 504 503 0
-506 -502 0
-506 505 0
506 -505 502 0
-507 502 0
-507 -505 0
507 505 -502 0
508 -506 0
508 -507 0
-508 507 506 0
37 -509 0
41 -509 0
-41 -37 509 0
-1 -510 0
2 -510 0
-2 1 510 0
1 -511 0
-2 -511 0
2 -1 511 0
512 -510 0
512 -511 0
-512 511 510 0
-513 -512 0
458 -513 0
-458 513 512 0
-514 512 0
-458 -514 0
458 514 -512 0
515 -513 0
515 -514 0
-515 514 513 0
-5 -516 0
6 -516 0
-6 5 516 0
5 -517 0
-6 -517 0
6 -5 517 0
518 -516 0
518 -517 0
-518 517 516 0
-7 -519 0
8 -519 0
-8 7 519 0
7 -520 0
-8 -520 0
8 -7 520 0
521 -519 0
521 -520 0
-521 520 519 0
-522 -518 0
-522 521 0
522 -521 518 0
-523 518 0
-523 -521 0
523 521 -518 0
524 -522 0
524 -523 0
-524 523 522 0
-525 -515 0
-525 524 0
525 -524 515 0
-526 515 0
-526 -524 0
526 524 -515 0
527 -525 0
527 -526 0
-527 526 525 0
-528 -509 0
-528 527 0
528 -527 509 0
-529 509 0
-529 -527 0
529 527 -509 0
530 -528 0
530 -529 0
-530 529 528 0
-531 -508 0
-531 530 0
531 -530 508 0
-532 508 0
-532 -530 0
532 530 -508 0
533 -531 0
533 -532 0
-533 532 531 0
-18 -534 0
22 -534 0
-22 18 534 0
18 -535 0
-22 -535 0
22 -18 535 0
536 -534 0
536 -535 0
-536 535 534 0
-26 -537 0
30 -537 0
-30 26 537 0
26 -538 0
-30 -538 0
30 -26 538 0
539 -537 0
539 -538 0
-539 538 537 0
-540 -536 0
-540 539 0
540 -539 536 0
-541 536 0
-541 -539 0
541 539 -536 0
542 -540 0
542 -541 0
-542 541 540 0
38 -543 0
41 -543 0
-41 -38 543 0
-9 -544 0
10 -544 0
-10 9 544 0
9 -545 0
-10 -545 0
10 -9 545 0
546 -544 0
546 -545 0
-546 545 544 0
-11 -547 0
12 -547 0
-12 11 547 0
11 -548 0
-12 -548 0
12 -11 548 0
549 -547 0
549 -548 0
-549 548 547 0
-550 -546 0
-550 549 0
550 -549 546 0
-551 546 0
-551 -549 0
551 549 -546 0
552 -550 0
552 -551 0
-552 551 550 0
-13 -553 0
14 -553 0
-14 13 553 0
13 -554 0
-14 -554 0
14 -13 554 0
555 -553 0
555 -554 0
-555 554 553 0
-15 -556 0
16 -556 0
-16 15 556 0
15 -557 0
-16 -557 0
16 -15 557 0
558 -556 0
558 -557 0
-558 557 556 0
-559 -555 0
-559 558 0
559 -558 555 0
-560 555 0
-560 -558 0
560 558 -555 0
561 -559 0
561 -560 0
-561 560 559 0
-562 -552 0
-562 561 0
562 -561 552 0
-563 552 0
-563 -561 0
563 561 -552 0
564 -562 0
564 -563 0
-564 563 562 0
-565 -543 0
-565 564 0
565 -564 543 0
-566 543 0
-566 -564 0
566 564 -543 0
567 -565 0
567 -566 0
-567 566 565 0
-568 -542 0
-568 567 0
568 -567 542 0
-569 542 0
-569 -567 0
569 567 -542 0
570 -568 0
570 -569 0
-570 569 568 0
-571 -570 0
571 570 0
-19 -572 0
23 -572 0
-23 19 572 0
19 -573 0
-23 -573 0
23 -19 573 0
574 -572 0
574 -573 0
-574 573 572 0
-27 -575 0
31 -575 0
-31 27 575 0
27 -576 0
-31 -576 0
31 -27 576 0
577 -575 0
577 -576 0
-577 576 575 0
-578 -574 0
-578 577 0
578 -577 574 0
-579 574 0
-579 -577 0
579 577 -574 0
580 -578 0
580 -579 0
-580 579 578 0
39 -581 0
41 -581 0
-41 -39 581 0
-582 -515 0
-582 552 0
582 -552 515 0
-583 515 0
-583 -552 0
583 552 -515 0
584 -582 0
584 -583 0
-584 583 582 0
-585 -581 0
-585 584 0
585 -584 581 0
-586 581 0
-586 -584 0
586 584 -581 0
587 -585 0
587 -586 0
-587 586 585 0
-588 -580 0
-588 587 0
588 -587 580 0
-589 580 0
-589 -587 0
589 587 -580 0
590 -588 0
590 -589 0
-590 589 588 0
-20 -591 0
24 -591 0
-24 20 591 0
20 -592 0
-24 -592 0
24 -20 592 0
593 -591 0
593 -592 0
-593 592 591 0
-28 -594 0
32 -594 0
-32 28 594 0
28 -595 0
-32 -595 0
32 -28 595 0
596 -594 0
596 -595 0
-596 595 594 0
-597 -593 0
-597 596 0
597 -596 593 0
-598 593 0
-598 -596 0
598 596 -593 0
599 -597 0
599 -598 0
-599 598 597 0
-600 -524 0
-600 561 0
600 -561 524 0
-601 524 0
-601 -561 0
601 561 -524 0
602 -600 0
602 -601 0
-602 601 600 0
-461 -603 0
-603 602 0
461 603 -602 0
461 -604 0
-604 -602 0
-461 604 602 0
605 -603 0
605 -604 0
-605 604 603 0
-606 -599 0
-606 605 0
606 -605 599 0
-607 599 0
-607 -605 0
607 605 -599 0
608 -606 0
608 -607 0
-608 607 606 0
-609 -608 0
609 608 0
-610 533 0
-610 571 0
-610 590 0
-610 609 0
460 -610 0
-460 610 -609 -590 -571 -533 0
-611 499 0
-611 610 0
611 -610 -499 0
-1 -612 0
-612 611 0
1 612 -611 0
1 -613 0
-613 -611 0
-1 613 611 0
614 -612 0
614 -613 0
-614 613 612 0
457 -615 0
-615 610 0
-457 615 -610 0
-2 -616 0
-616 615 0
2 616 -615 0
2 -617 0
-617 -615 0
-2 617 615 0
618 -616 0
618 -617 0
-618 617 616 0
-3 -619 0
7 -619 0
-7 3 619 0
3 -620 0
-7 -620 0
7 -3 620 0
621 -619 0
621 -620 0
-621 620 619 0
-11 -622 0
15 -622 0
-15 11 622 0
11 -623 0
-15 -623 0
15 -11 623 0
624 -622 0
624 -623 0
-624 623 622 0
-625 -621 0
-625 624 0
625 -624 621 0
-626 621 0
-626 -624 0
626 624 -621 0
627 -625 0
627 -626 0
-627 626 625 0
35 -628 0
41 -628 0
-41 -35 628 0
-25 -629 0
26 -629 0
-26 25 629 0
25 -630 0
-26 -630 0
26 -25 630 0
631 -629 0
631 -630 0
-631 630 629 0
-27 -632 0
28 -632 0
-28 27 632 0
27 -633 0
-28 -633 0
28 -27 633 0
634 -632 0
634 -633 0
-634 633 632 0
-635 -631 0
-635 634 0
635 -634 631 0
-636 631 0
-636 -634 0
636 634 -631 0
637 -635 0
637 -636 0
-637 636 635 0
-638 -484 0
-638 637 0
638 -637 484 0
-639 484 0
-639 -637 0
639 637 -484 0
640 -638 0
640 -639 0
-640 639 638 0
-641 -628 0
-641 640 0
641 -640 628 0
-642 628 0
-642 -640 0
642 640 -628 0
643 -641 0
643 -642 0
-643 642 641 0
-644 -627 0
-644 643 0
644 -643 627 0
-645 627 0
-645 -643 0
645 643 -627 0
646 -644 0
646 -645 0
-646 645 644 0
-647 646 0
-647 610 0
647 -646 -610 0
-3 -648 0
-648 647 0
3 648 -647 0
3 -649 0
-649 -647 0
-3 649 647 0
650 -648 0
650 -649 0
-650 649 648 0
-4 -651 0
8 -651 0
-8 4 651 0
4 -652 0
-8 -652 0
8 -4 652 0
653 -651 0
653 -652 0
-653 652 651 0
-12 -654 0
16 -654 0
-16 12 654 0
12 -655 0
-16 -655 0
16 -12 655 0
656 -654 0
656 -655 0
-656 655 654 0
-657 -653 0
-657 656 0
657 -656 653 0
-658 653 0
-658 -656 0
658 656 -653 0
659 -657 0
659 -658 0
-659 658 657 0
36 -660 0
41 -660 0
-41 -36 660 0
-661 -490 0
454 -661 0
-454 661 490 0
-662 490 0
-454 -662 0
454 662 -490 0
663 -661 0
663 -662 0
-663 662 661 0
-664 -660 0
-664 663 0
664 -663 660 0
-665 660 0
-665 -663 0
665 663 -660 0
666 -664 0
666 -665 0
-666 665 664 0
-667 -659 0
-667 666 0
667 -666 659 0
-668 659 0
-668 -666 0
668 666 -659 0
669 -667 0
669 -668 0
-669 668 667 0
-670 669 0
-670 610 0
670 -669 -610 0
-4 -671 0
-671 670 0
4 671 -670 0
4 -672 0
-672 -670 0
-4 672 670 0
673 -671 0
673 -672 0
-673 672 671 0
-674 -570 0
674 570 0
-675 -590 0
675 590 0
-676 533 0
-676 674 0
-676 675 0
-676 608 0
460 -676 0
-460 676 -675 -674 -608 -533 0
-677 499 0
-677 676 0
677 -676 -499 0
-5 -678 0
-678 677 0
5 678 -677 0
5 -679 0
-679 -677 0
-5 679 677 0
680 -678 0
680 -679 0
-680 679 678 0
457 -681 0
-681 676 0
-457 681 -676 0
-6 -682 0
-682 681 0
6 682 -681 0
6 -683 0
-683 -681 0
-6 683 681 0
684 -682 0
684 -683 0
-684 683 682 0
-685 646 0
-685 676 0
685 -676 -646 0
-7 -686 0
-686 685 0
7 686 -685 0
7 -687 0
-687 -685 0
-7 687 685 0
688 -686 0
688 -687 0
-688 687 686 0
-689 669 0
-689 676 0
689 -676 -669 0
-8 -690 0
-690 689 0
8 690 -689 0
8 -691 0
-691 -689 0
-8 691 689 0
692 -690 0
692 -691 0
-692 691 690 0
-693 499 0
463 -693 0
-463 693 -499 0
-9 -694 0
-694 693 0
9 694 -693 0
9 -695 0
-695 -693 0
-9 695 693 0
696 -694 0
696 -695 0
-696 695 694 0
457 -697 0
463 -697 0
-463 -457 697 0
-10 -698 0
-698 697 0
10 698 -697 0
10 -699 0
-699 -697 0
-10 699 697 0
700 -698 0
700 -699 0
-700 699 698 0
-701 646 0
463 -701 0
-463 701 -646 0
-11 -702 0
-702 701 0
11 702 -701 0
11 -703 0
-703 -701 0
-11 703 701 0
704 -702 0
704 -703 0
-704 703 702 0
-705 669 0
463 -705 0
-463 705 -669 0
-12 -706 0
-706 705 0
12 706 -705 0
12 -707 0
-707 -705 0
-12 707 705 0
708 -706 0
708 -707 0
-708 707 706 0
-709 499 0
459 -709 0
-459 709 -499 0
-13 -710 0
-710 709 0
13 710 -709 0
13 -711 0
-711 -709 0
-13 711 709 0
712 -710 0
712 -711 0
-712 711 710 0
457 -713 0
459 -713 0
-459 -457 713 0
-14 -714 0
-714 713 0
14 714 -713 0
14 -715 0
-715 -713 0
-14 715 713 0
716 -714 0
716 -715 0
-716 715 714 0
-717 646 0
459 -717 0
-459 717 -646 0
-15 -718 0
-718 717 0
15 718 -717 0
15 -719 0
-719 -717 0
-15 719 717 0
720 -718 0
720 -719 0
-720 719 718 0
-721 669 0
459 -721 0
-459 721 -669 0
-16 -722 0
-722 721 0
16 722 -721 0
16 -723 0
-723 -721 0
-16 723 721 0
724 -722 0
724 -723 0
-724 723 722 0
-457 -725 0
457 725 0
-726 -669 0
726 669 0
-727 -533 0
727 533 0
-728 -570 0
728 570 0
-729 -590 0
729 590 0
-730 727 0
-730 728 0
-730 729 0
-730 608 0
730 -729 -728 -727 -608 0
-731 -533 0
731 533 0
-732 -570 0
732 570 0
-733 -608 0
733 608 0
-734 731 0
-734 732 0
-734 590 0
-734 733 0
734 -733 -732 -731 -590 0
-735 -533 0
735 533 0
-736 -590 0
736 590 0
-737 -608 0
737 608 0
-738 735 0
-738 570 0
-738 736 0
-738 737 0
738 -737 -736 -735 -570 0
-739 -570 0
739 570 0
-740 -590 0
740 590 0
-741 533 0
-741 739 0
-741 740 0
464 -741 0
-464 741 -740 -739 -533 0
-742 -730 0
-742 -734 0
-742 -738 0
-742 -741 0
742 741 738 734 730 0
-743 -742 0
743 742 0
-744 499 0
-744 725 0
-744 646 0
-744 726 0
-744 743 0
744 -743 -726 -725 -646 -499 0
-745 533 0
-745 744 0
745 -744 -533 0
-17 -746 0
-746 745 0
17 746 -745 0
17 -747 0
-747 -745 0
-17 747 745 0
748 -746 0
748 -747 0
-748 747 746 0
-749 570 0
-749 744 0
749 -744 -570 0
-18 -750 0
-750 749 0
18 750 -749 0
18 -751 0
-751 -749 0
-18 751 749 0
752 -750 0
752 -751 0
-752 751 750 0
-753 590 0
-753 744 0
753 -744 -590 0
-19 -754 0
-754 753 0
19 754 -753 0
19 -755 0
-755 -753 0
-19 755 753 0
756 -754 0
756 -755 0
-756 755 754 0
-757 608 0
-757 744 0
757 -744 -608 0
-20 -758 0
-758 757 0
20 758 -757 0
20 -759 0
-759 -757 0
-20 759 757 0
760 -758 0
760 -759 0
-760 759 758 0
-457 -761 0
457 761 0
-762 -646 0
762 646 0
-763 499 0
-763 761 0
-763 762 0
-763 669 0
-763 743 0
763 -762 -761 -743 -669 -499 0
-764 533 0
-764 763 0
764 -763 -533 0
-21 -765 0
-765 764 0
21 765 -764 0
21 -766 0
-766 -764 0
-21 766 764 0
767 -765 0
767 -766 0
-767 766 765 0
-768 570 0
-768 763 0
768 -763 -570 0
-22 -769 0
-769 768 0
22 769 -768 0
22 -770 0
-770 -768 0
-22 770 768 0
771 -769 0
771 -770 0
-771 770 769 0
-772 590 0
-772 763 0
772 -763 -590 0
-23 -773 0
-773 772 0
23 773 -772 0
23 -774 0
-774 -772 0
-23 774 772 0
775 -773 0
775 -774 0
-775 774 773 0
-776 608 0
-776 763 0
776 -763 -608 0
-24 -777 0
-777 776 0
24 777 -776 0
24 -778 0
-778 -776 0
-24 778 776 0
779 -777 0
779 -778 0
-779 778 777 0
-780 533 0
456 -780 0
-456 780 -533 0
-25 -781 0
-781 780 0
25 781 -780 0
25 -782 0
-782 -780 0
-25 782 780 0
783 -781 0
783 -782 0
-783 782 781 0
-784 570 0
456 -784 0
-456 784 -570 0
-26 -785 0
-785 784 0
26 785 -784 0
26 -786 0
-786 -784 0
-26 786 784 0
787 -785 0
787 -786 0
-787 786 785 0
-788 -499 0
788 499 0
-789 -646 0
789 646 0
-790 788 0
457 -790 0
-790 789 0
-790 669 0
-790 743 0
-457 790 -789 -788 -743 -669 0
-791 533 0
-791 790 0
791 -790 -533 0
-29 -792 0
-792 791 0
29 792 -791 0
29 -793 0
-793 -791 0
-29 793 791 0
794 -792 0
794 -793 0
-794 793 792 0
-795 570 0
-795 790 0
795 -790 -570 0
-30 -796 0
-796 795 0
30 796 -795 0
30 -797 0
-797 -795 0
-30 797 795 0
798 -796 0
798 -797 0
-798 797 796 0
-799 590 0
-799 790 0
799 -790 -590 0
-31 -800 0
-800 799 0
31 800 -799 0
31 -801 0
-801 -799 0
-31 801 799 0
802 -800 0
802 -801 0
-802 801 800 0
-803 608 0
-803 790 0
803 -790 -608 0
-32 -804 0
-804 803 0
32 804 -803 0
32 -805 0
-805 -803 0
-32 805 803 0
806 -804 0
806 -805 0
-806 805 804 0
-807 -614 -290 0
-807 614 290 0
807 -614 290 0
807 614 -290 0
-808 -618 -294 0
-808 618 294 0
808 -618 294 0
808 618 -294 0
-809 -650 -298 0
-809 650 298 0
809 -650 298 0
809 650 -298 0
-810 -673 -302 0
-810 673 302 0
810 -673 302 0
810 673 -302 0
-811 -680 -309 0
-811 680 309 0
811 -680 309 0
811 680 -309 0
-812 -684 -313 0
-812 684 313 0
812 -684 313 0
812 684 -313 0
-813 -688 -317 0
-813 688 317 0
813 -688 317 0
813 688 -317 0
-814 -692 -321 0
-814 692 321 0
814 -692 321 0
814 692 -321 0
-815 -696 -328 0
-815 696 328 0
815 -696 328 0
815 696 -328 0
-816 -700 -332 0
-816 700 332 0
816 -700 332 0
816 700 -332 0
-817 -704 -336 0
-817 704 336 0
817 -704 336 0
817 704 -336 0
-818 -708 -340 0
-818 708 340 0
818 -708 340 0
818 708 -340 0
-819 -712 -347 0
-819 712 347 0
819 -712 347 0
819 712 -347 0
-820 -716 -351 0
-820 716 351 0
820 -716 351 0
820 716 -351 0
-821 -720 -355 0
-821 720 355 0
821 -720 355 0
821 720 -355 0
-822 -724 -359 0
-822 724 359 0
822 -724 359 0
822 724 -359 0
-823 -748 -384 0
-823 748 384 0
823 -748 384 0
823 748 -384 0
-824 -752 -388 0
-824 752 388 0
824 -752 388 0
824 752 -388 0
-825 -756 -392 0
-825 756 392 0
825 -756 392 0
825 756 -392 0
-826 -760 -396 0
-826 760 396 0
826 -760 396 0
826 760 -396 0
-827 -767 -403 0
-827 767 403 0
827 -767 403 0
827 767 -403 0
-828 -771 -407 0
-828 771 407 0
828 -771 407 0
828 771 -407 0
-829 -775 -411 0
-829 775 411 0
829 -775 411 0
829 775 -411 0
-830 -779 -415 0
-830 779 415 0
830 -779 415 0
830 779 -415 0
-831 -783 -422 0
-831 783 422 0
831 -783 422 0
831 783 -422 0
-832 -787 -426 0
-832 787 426 0
832 -787 426 0
832 787 -426 0
-462 -833 -430 0
462 -833 430 0
-462 833 430 0
462 833 -430 0
-455 -834 -434 0
455 -834 434 0
-455 834 434 0
455 834 -434 0
-835 -794 -441 0
-835 794 441 0
835 -794 441 0
835 794 -441 0
-836 -798 -445 0
-836 798 445 0
836 -798 445 0
836 798 -445 0
-837 -802 -449 0
-837 802 449 0
837 -802 449 0
837 802 -449 0
-838 -806 -453 0
-838 806 453 0
838 -806 453 0
838 806 -453 0
838 837 836 835 834 833 832 831 830 829 828 827 826 825 824 823 822 821 820 819 818 817 816 815 814 813 812 811 810 809 808 807 0
